NAME : in_house_8_10
TYPE : TSP
DIMENSION : 8
EDGE_WEIGHT_TYPE : EXPLICIT
EDGE_WEIGHT_FORMAT : UPPER_ROW
COMMENT : INVERSION_SHIFT=8
EDGE_WEIGHT_SECTION
5
19
34
42
51
55
13
12
20
36
63
40
27
13
48
64
9
43
2
22
26
55
1
63
34
12
22
40
